% Logging successfully configured
%%%mzn-stat: initTime=0.022178935
%%%mzn-stat: objective=1157
%%%mzn-stat: nodes=17945
%%%mzn-stat: restarts=0
%%%mzn-stat: peakDepth=440
%%%mzn-stat: solveTime=3.494382802
%%%mzn-stat: variables=1002
%%%mzn-stat: propagators=1856
%%%mzn-stat: failures=15901
%%%mzn-stat: propagations=7720224
%%%mzn-stat: nogoods=15901
%%%mzn-stat: numAtomicConstraintsPropagated=0
%%%mzn-stat: circuitNumber1226PropagationsThatFoundConflict=92
%%%mzn-stat: circuitNumber1226TotalFixedEdgesAtConflict=3391
%%%mzn-stat: circuitNumber1226NumberOfConflicts=92
%%%mzn-stat: circuitNumber1226PropagationsThatPruned=1552
%%%mzn-stat: circuitNumber1226PropagationsTotal=14087
%%%mzn-stat: AverageConflictSize=11.581472863341927
%%%mzn-stat: NumUnitNogoodsLearned=0
%%%mzn-stat: AverageLearnedNogoodLength=33.95421671592982
%%%mzn-stat: AverageBacktrackAmount=0
%%%mzn-stat: AverageLbd=17.477328469907555
%%%mzn-stat: 2AutonomousSearchNumBackupCalled=414
%%%mzn-stat: 2AutonomousSearchNumPredicatesRemoved=0
%%%mzn-stat: 2AutonomousSearchNumCalls=415
%%%mzn-stat: 2AutonomousSearchNumPredicatesAdded=1767
%%%mzn-stat: 2AutonomousSearchAverageSizeOfHeap=4.257831325301205
%%%mzn-stat: 2AutonomousSearchNumAssignedPredicatesEncountered=1767
%%%mzn-stat-end
maxleg = 1157;
succ = array1d(1..50,[2, 15, 21, 3, 7, 18, 10, 20, 12, 16, 19, 4, 1, 24, 5, 6, 33, 22, 23, 11, 17, 32, 14, 9, 34, 8, 39, 50, 48, 49, 13, 25, 30, 38, 28, 27, 29, 42, 41, 26, 35, 36, 46, 47, 37, 45, 40, 44, 31, 43]);
% time elapsed: 8.99 s
----------
%%%mzn-stat: initTime=0.022178935
%%%mzn-stat: objective=908
%%%mzn-stat: nodes=28421
%%%mzn-stat: restarts=0
%%%mzn-stat: peakDepth=440
%%%mzn-stat: solveTime=6.131951902
%%%mzn-stat: variables=1002
%%%mzn-stat: propagators=1856
%%%mzn-stat: failures=25524
%%%mzn-stat: propagations=12631081
%%%mzn-stat: nogoods=25524
%%%mzn-stat: numAtomicConstraintsPropagated=0
%%%mzn-stat: circuitNumber1226PropagationsThatFoundConflict=116
%%%mzn-stat: circuitNumber1226TotalFixedEdgesAtConflict=4327
%%%mzn-stat: circuitNumber1226NumberOfConflicts=116
%%%mzn-stat: circuitNumber1226PropagationsThatPruned=2375
%%%mzn-stat: circuitNumber1226PropagationsTotal=22065
%%%mzn-stat: AverageConflictSize=11.933356840620592
%%%mzn-stat: NumUnitNogoodsLearned=0
%%%mzn-stat: AverageLearnedNogoodLength=34.96822598338819
%%%mzn-stat: AverageBacktrackAmount=0
%%%mzn-stat: AverageLbd=17.530363579376274
%%%mzn-stat: 2AutonomousSearchNumBackupCalled=781
%%%mzn-stat: 2AutonomousSearchNumPredicatesRemoved=0
%%%mzn-stat: 2AutonomousSearchNumCalls=783
%%%mzn-stat: 2AutonomousSearchNumPredicatesAdded=3581
%%%mzn-stat: 2AutonomousSearchAverageSizeOfHeap=4.729246487867178
%%%mzn-stat: 2AutonomousSearchNumAssignedPredicatesEncountered=3703
%%%mzn-stat-end
maxleg = 908;
succ = array1d(1..50,[2, 15, 21, 3, 7, 18, 10, 20, 12, 16, 19, 4, 1, 24, 5, 8, 33, 22, 23, 6, 17, 32, 14, 9, 34, 11, 39, 50, 48, 49, 13, 25, 30, 38, 28, 27, 29, 42, 41, 26, 35, 36, 46, 47, 37, 45, 40, 44, 31, 43]);
% time elapsed: 11.62 s
----------
%%%mzn-stat: initTime=0.022178935
%%%mzn-stat: objective=896
%%%mzn-stat: nodes=29623
%%%mzn-stat: restarts=0
%%%mzn-stat: peakDepth=440
%%%mzn-stat: solveTime=6.360401461
%%%mzn-stat: variables=1002
%%%mzn-stat: propagators=1856
%%%mzn-stat: failures=26217
%%%mzn-stat: propagations=13017723
%%%mzn-stat: nogoods=26217
%%%mzn-stat: numAtomicConstraintsPropagated=0
%%%mzn-stat: circuitNumber1226PropagationsThatFoundConflict=119
%%%mzn-stat: circuitNumber1226TotalFixedEdgesAtConflict=4449
%%%mzn-stat: circuitNumber1226NumberOfConflicts=119
%%%mzn-stat: circuitNumber1226PropagationsThatPruned=2412
%%%mzn-stat: circuitNumber1226PropagationsTotal=22763
%%%mzn-stat: AverageConflictSize=11.889041461647023
%%%mzn-stat: NumUnitNogoodsLearned=0
%%%mzn-stat: AverageLearnedNogoodLength=35.06209711256055
%%%mzn-stat: AverageBacktrackAmount=0
%%%mzn-stat: AverageLbd=17.55353396651028
%%%mzn-stat: 2AutonomousSearchNumBackupCalled=1150
%%%mzn-stat: 2AutonomousSearchNumPredicatesRemoved=0
%%%mzn-stat: 2AutonomousSearchNumCalls=1153
%%%mzn-stat: 2AutonomousSearchNumPredicatesAdded=5405
%%%mzn-stat: 2AutonomousSearchAverageSizeOfHeap=4.95836947094536
%%%mzn-stat: 2AutonomousSearchNumAssignedPredicatesEncountered=5717
%%%mzn-stat-end
maxleg = 896;
succ = array1d(1..50,[2, 15, 21, 3, 7, 18, 10, 20, 12, 16, 29, 4, 1, 24, 5, 8, 33, 22, 23, 6, 17, 32, 40, 9, 34, 50, 39, 14, 48, 49, 13, 25, 30, 11, 28, 27, 38, 42, 41, 26, 35, 36, 46, 47, 37, 45, 19, 44, 31, 43]);
% time elapsed: 11.85 s
----------
%%%mzn-stat: initTime=0.022178935
%%%mzn-stat: objective=890
%%%mzn-stat: nodes=30027
%%%mzn-stat: restarts=0
%%%mzn-stat: peakDepth=440
%%%mzn-stat: solveTime=6.3720839510000005
%%%mzn-stat: variables=1002
%%%mzn-stat: propagators=1856
%%%mzn-stat: failures=26242
%%%mzn-stat: propagations=13037431
%%%mzn-stat: nogoods=26242
%%%mzn-stat: numAtomicConstraintsPropagated=0
%%%mzn-stat: circuitNumber1226PropagationsThatFoundConflict=121
%%%mzn-stat: circuitNumber1226TotalFixedEdgesAtConflict=4549
%%%mzn-stat: circuitNumber1226NumberOfConflicts=121
%%%mzn-stat: circuitNumber1226PropagationsThatPruned=2416
%%%mzn-stat: circuitNumber1226PropagationsTotal=22808
%%%mzn-stat: AverageConflictSize=11.890519015318954
%%%mzn-stat: NumUnitNogoodsLearned=0
%%%mzn-stat: AverageLearnedNogoodLength=35.06672509717247
%%%mzn-stat: AverageBacktrackAmount=0
%%%mzn-stat: AverageLbd=17.55239692096639
%%%mzn-stat: 2AutonomousSearchNumBackupCalled=1507
%%%mzn-stat: 2AutonomousSearchNumPredicatesRemoved=0
%%%mzn-stat: 2AutonomousSearchNumCalls=1511
%%%mzn-stat: 2AutonomousSearchNumPredicatesAdded=6831
%%%mzn-stat: 2AutonomousSearchAverageSizeOfHeap=5.13765718067505
%%%mzn-stat: 2AutonomousSearchNumAssignedPredicatesEncountered=7763
%%%mzn-stat-end
maxleg = 890;
succ = array1d(1..50,[2, 15, 21, 3, 7, 18, 10, 20, 12, 16, 46, 4, 1, 24, 5, 8, 33, 22, 23, 6, 17, 32, 30, 9, 34, 11, 39, 14, 48, 49, 13, 25, 45, 38, 28, 27, 29, 42, 41, 26, 35, 36, 19, 47, 37, 50, 40, 44, 31, 43]);
% time elapsed: 11.86 s
----------
%%%mzn-stat: initTime=0.022178935
%%%mzn-stat: objective=852
%%%mzn-stat: nodes=30395
%%%mzn-stat: restarts=0
%%%mzn-stat: peakDepth=440
%%%mzn-stat: solveTime=6.374125987
%%%mzn-stat: variables=1002
%%%mzn-stat: propagators=1856
%%%mzn-stat: failures=26242
%%%mzn-stat: propagations=13040879
%%%mzn-stat: nogoods=26242
%%%mzn-stat: numAtomicConstraintsPropagated=0
%%%mzn-stat: circuitNumber1226PropagationsThatFoundConflict=121
%%%mzn-stat: circuitNumber1226TotalFixedEdgesAtConflict=4549
%%%mzn-stat: circuitNumber1226NumberOfConflicts=121
%%%mzn-stat: circuitNumber1226PropagationsThatPruned=2419
%%%mzn-stat: circuitNumber1226PropagationsTotal=22831
%%%mzn-stat: AverageConflictSize=11.890519015318954
%%%mzn-stat: NumUnitNogoodsLearned=0
%%%mzn-stat: AverageLearnedNogoodLength=35.06672509717247
%%%mzn-stat: AverageBacktrackAmount=0
%%%mzn-stat: AverageLbd=17.55239692096639
%%%mzn-stat: 2AutonomousSearchNumBackupCalled=1855
%%%mzn-stat: 2AutonomousSearchNumPredicatesRemoved=0
%%%mzn-stat: 2AutonomousSearchNumCalls=1860
%%%mzn-stat: 2AutonomousSearchNumPredicatesAdded=6831
%%%mzn-stat: 2AutonomousSearchAverageSizeOfHeap=5.273655913978494
%%%mzn-stat: 2AutonomousSearchNumAssignedPredicatesEncountered=9809
%%%mzn-stat-end
maxleg = 852;
succ = array1d(1..50,[2, 15, 21, 3, 7, 18, 10, 20, 12, 16, 46, 4, 1, 24, 5, 8, 33, 22, 23, 6, 27, 37, 42, 9, 34, 11, 32, 14, 48, 49, 19, 25, 30, 38, 28, 50, 29, 13, 41, 26, 35, 47, 39, 17, 36, 45, 40, 44, 31, 43]);
% time elapsed: 11.87 s
----------
%%%mzn-stat: initTime=0.022178935
%%%mzn-stat: objective=801
%%%mzn-stat: nodes=31019
%%%mzn-stat: restarts=0
%%%mzn-stat: peakDepth=440
%%%mzn-stat: solveTime=6.4345940200000005
%%%mzn-stat: variables=1002
%%%mzn-stat: propagators=1856
%%%mzn-stat: failures=26447
%%%mzn-stat: propagations=13163887
%%%mzn-stat: nogoods=26447
%%%mzn-stat: numAtomicConstraintsPropagated=0
%%%mzn-stat: circuitNumber1226PropagationsThatFoundConflict=124
%%%mzn-stat: circuitNumber1226TotalFixedEdgesAtConflict=4653
%%%mzn-stat: circuitNumber1226NumberOfConflicts=124
%%%mzn-stat: circuitNumber1226PropagationsThatPruned=2451
%%%mzn-stat: circuitNumber1226PropagationsTotal=23091
%%%mzn-stat: AverageConflictSize=11.860967217453776
%%%mzn-stat: NumUnitNogoodsLearned=0
%%%mzn-stat: AverageLearnedNogoodLength=35.07199304268915
%%%mzn-stat: AverageBacktrackAmount=0
%%%mzn-stat: AverageLbd=17.534654214088555
%%%mzn-stat: 2AutonomousSearchNumBackupCalled=2189
%%%mzn-stat: 2AutonomousSearchNumPredicatesRemoved=0
%%%mzn-stat: 2AutonomousSearchNumCalls=2195
%%%mzn-stat: 2AutonomousSearchNumPredicatesAdded=8415
%%%mzn-stat: 2AutonomousSearchAverageSizeOfHeap=5.431890660592255
%%%mzn-stat: 2AutonomousSearchNumAssignedPredicatesEncountered=11923
%%%mzn-stat-end
maxleg = 801;
succ = array1d(1..50,[2, 40, 15, 3, 7, 18, 10, 20, 12, 16, 46, 4, 1, 24, 5, 8, 33, 22, 23, 6, 25, 32, 42, 9, 34, 11, 39, 14, 48, 49, 13, 21, 30, 38, 28, 27, 29, 37, 41, 26, 35, 47, 19, 17, 36, 45, 31, 44, 50, 43]);
% time elapsed: 11.93 s
----------
%%%mzn-stat: initTime=0.022178935
%%%mzn-stat: objective=774
%%%mzn-stat: nodes=31464
%%%mzn-stat: restarts=0
%%%mzn-stat: peakDepth=440
%%%mzn-stat: solveTime=6.463302471
%%%mzn-stat: variables=1002
%%%mzn-stat: propagators=1856
%%%mzn-stat: failures=26535
%%%mzn-stat: propagations=13221289
%%%mzn-stat: nogoods=26535
%%%mzn-stat: numAtomicConstraintsPropagated=0
%%%mzn-stat: circuitNumber1226PropagationsThatFoundConflict=125
%%%mzn-stat: circuitNumber1226TotalFixedEdgesAtConflict=4701
%%%mzn-stat: circuitNumber1226NumberOfConflicts=125
%%%mzn-stat: circuitNumber1226PropagationsThatPruned=2464
%%%mzn-stat: circuitNumber1226PropagationsTotal=23194
%%%mzn-stat: AverageConflictSize=11.851403806293575
%%%mzn-stat: NumUnitNogoodsLearned=0
%%%mzn-stat: AverageLearnedNogoodLength=35.09700395703788
%%%mzn-stat: AverageBacktrackAmount=0
%%%mzn-stat: AverageLbd=17.532579611833427
%%%mzn-stat: 2AutonomousSearchNumBackupCalled=2516
%%%mzn-stat: 2AutonomousSearchNumPredicatesRemoved=0
%%%mzn-stat: 2AutonomousSearchNumCalls=2523
%%%mzn-stat: 2AutonomousSearchNumPredicatesAdded=9845
%%%mzn-stat: 2AutonomousSearchAverageSizeOfHeap=5.572334522393976
%%%mzn-stat: 2AutonomousSearchNumAssignedPredicatesEncountered=14059
%%%mzn-stat-end
maxleg = 774;
succ = array1d(1..50,[2, 40, 15, 3, 7, 18, 10, 20, 12, 16, 46, 4, 1, 25, 5, 8, 33, 22, 23, 6, 27, 32, 42, 11, 34, 24, 39, 14, 48, 49, 13, 21, 30, 38, 28, 50, 29, 37, 41, 26, 35, 47, 19, 17, 36, 45, 9, 44, 31, 43]);
% time elapsed: 11.96 s
----------
==========
% time elapsed: 11.96 s
%%%mzn-stat: initTime=0.022178935
%%%mzn-stat: objective=774
%%%mzn-stat: nodes=31464
%%%mzn-stat: restarts=0
%%%mzn-stat: peakDepth=440
%%%mzn-stat: solveTime=6.463409773
%%%mzn-stat: variables=1002
%%%mzn-stat: propagators=1856
%%%mzn-stat: failures=26536
%%%mzn-stat: propagations=13221398
%%%mzn-stat: nogoods=26536
%%%mzn-stat: numAtomicConstraintsPropagated=0
%%%mzn-stat: circuitNumber1226PropagationsThatFoundConflict=125
%%%mzn-stat: circuitNumber1226TotalFixedEdgesAtConflict=4701
%%%mzn-stat: circuitNumber1226NumberOfConflicts=125
%%%mzn-stat: circuitNumber1226PropagationsThatPruned=2464
%%%mzn-stat: circuitNumber1226PropagationsTotal=23194
%%%mzn-stat: AverageConflictSize=11.851032559541755
%%%mzn-stat: NumUnitNogoodsLearned=1
%%%mzn-stat: AverageLearnedNogoodLength=35.095719023213746
%%%mzn-stat: AverageBacktrackAmount=0
%%%mzn-stat: AverageLbd=17.531956587277662
%%%mzn-stat: 2AutonomousSearchNumBackupCalled=2516
%%%mzn-stat: 2AutonomousSearchNumPredicatesRemoved=0
%%%mzn-stat: 2AutonomousSearchNumCalls=2523
%%%mzn-stat: 2AutonomousSearchNumPredicatesAdded=9880
%%%mzn-stat: 2AutonomousSearchAverageSizeOfHeap=5.572334522393976
%%%mzn-stat: 2AutonomousSearchNumAssignedPredicatesEncountered=14059
%%%mzn-stat-end
